SumColouring/JavaBacktracker/RandomInstances/16_0.25_3.col
c File: instances/16_0.25_3.col
c
c Description: Random graph of size 16 vertices and P(0.25) of edges between any two vertices.
p col 16 120
e 1 6
e 1 9
e 1 11
e 1 13
e 1 15
e 2 6
e 2 8
e 2 11
e 2 15
e 3 5
e 3 7
e 3 8
e 3 9
e 3 11
e 4 7
e 4 15
e 5 6
e 5 9
e 5 15
e 6 7
e 6 8
e 6 10
e 6 14
e 7 11
e 7 12
e 8 11
e 8 14
e 9 10
e 9 15
e 10 11
e 10 15
e 11 12
e 11 14